%%%mzn-stat: initTime=0.007269657
%%%mzn-stat: objective=203
%%%mzn-stat: nodes=576
%%%mzn-stat: restarts=0
%%%mzn-stat: peakDepth=216
%%%mzn-stat: solveTime=0.050546324
%%%mzn-stat: variables=792
%%%mzn-stat: propagators=558
%%%mzn-stat: failures=236
%%%mzn-stat: propagations=70850
%%%mzn-stat: nogoods=236
%%%mzn-stat: AverageConflictSize=4.826271186440678
%%%mzn-stat: NumUnitNogoodsLearned=202
%%%mzn-stat: AverageLearnedNogoodLength=7.029661016949152
%%%mzn-stat: AverageBacktrackAmount=0
%%%mzn-stat: AverageLbd=2.6228813559322033
%%%mzn-stat-end
maxleg = 203;
succ = array1d(1..50,[41, 4, 38, 8, 50, 28, 18, 3, 42, 47, 23, 16, 24, 31, 46, 1, 43, 25, 40, 7, 30, 44, 34, 39, 37, 45, 35, 17, 2, 13, 12, 36, 15, 21, 49, 26, 48, 14, 32, 5, 22, 11, 10, 9, 19, 27, 20, 29, 6, 33]);
% time elapsed: 7.05 s
----------
==========
% time elapsed: 7.05 s
%%%mzn-stat: initTime=0.007269657
%%%mzn-stat: objective=203
%%%mzn-stat: nodes=576
%%%mzn-stat: restarts=0
%%%mzn-stat: peakDepth=216
%%%mzn-stat: solveTime=0.050557499
%%%mzn-stat: variables=792
%%%mzn-stat: propagators=558
%%%mzn-stat: failures=236
%%%mzn-stat: propagations=70850
%%%mzn-stat: nogoods=236
%%%mzn-stat: AverageConflictSize=4.826271186440678
%%%mzn-stat: NumUnitNogoodsLearned=202
%%%mzn-stat: AverageLearnedNogoodLength=7.029661016949152
%%%mzn-stat: AverageBacktrackAmount=0
%%%mzn-stat: AverageLbd=2.6228813559322033
%%%mzn-stat-end
